truck_id,order_id,sequence_number
0,91.0,1
0,244.0,2
0,174.0,3
0,78.0,4
1,48.0,1
1,26.0,2
1,145.0,3
1,299.0,4
1,189.0,5
1,400.0,6
1,248.0,7
1,479.0,8
1,107.0,9
1,180.0,10
2,0.0,1
2,271.0,2
2,314.0,3
2,184.0,4
2,79.0,5
2,438.0,6
2,241.0,7
2,254.0,8
2,325.0,9
2,460.0,10
3,86.0,1
3,259.0,2
4,340.0,1
4,4.0,2
4,160.0,3
4,6.0,4
4,257.0,5
5,286.0,1
5,334.0,2
5,35.0,3
5,357.0,4
5,397.0,5
5,128.0,6
5,119.0,7
5,313.0,8
5,87.0,9
5,101.0,10
6,23.0,1
6,49.0,2
6,195.0,3
6,291.0,4
6,329.0,5
6,309.0,6
6,341.0,7
7,394.0,1
7,411.0,2
7,457.0,3
7,470.0,4
7,236.0,5
7,423.0,6
7,125.0,7
7,442.0,8
7,266.0,9
7,287.0,10
8,381.0,1
8,393.0,2
8,215.0,3
8,81.0,4
8,240.0,5
8,403.0,6
9,474.0,1
9,277.0,2
9,302.0,3
9,265.0,4
9,31.0,5
9,243.0,6
9,152.0,7
9,154.0,8
9,187.0,9
9,238.0,10
10,290.0,1
11,143.0,1
11,418.0,2
11,490.0,3
11,362.0,4
11,432.0,5
11,15.0,6
11,95.0,7
11,288.0,8
11,346.0,9
12,349.0,1
12,32.0,2
12,25.0,3
12,282.0,4
12,493.0,5
12,108.0,6
12,372.0,7
13,399.0,1
13,415.0,2
14,495.0,1
14,190.0,2
14,275.0,3
14,201.0,4
14,209.0,5
14,121.0,6
14,19.0,7
14,377.0,8
14,422.0,9
14,294.0,10
15,338.0,1
15,113.0,2
15,217.0,3
15,284.0,4
15,83.0,5
15,402.0,6
16,175.0,1
16,407.0,2
16,255.0,3
16,419.0,4
16,237.0,5
16,318.0,6
16,273.0,7
16,168.0,8
16,303.0,9
16,322.0,10
17,146.0,1
17,492.0,2
17,316.0,3
18,319.0,1
19,197.0,1
19,115.0,2
19,40.0,3
19,228.0,4
20,301.0,1
21,383.0,1
22,118.0,1
22,186.0,2
22,62.0,3
22,391.0,4
22,16.0,5
23,142.0,1
24,355.0,1
24,204.0,2
24,417.0,3
24,323.0,4
25,310.0,1
25,306.0,2
25,307.0,3
25,489.0,4
25,47.0,5
25,435.0,6
25,213.0,7
25,440.0,8
25,439.0,9
26,111.0,1
26,426.0,2
26,90.0,3
26,159.0,4
26,395.0,5
26,172.0,6
26,327.0,7
26,375.0,8
26,227.0,9
26,260.0,10
27,63.0,1
27,191.0,2
27,331.0,3
27,44.0,4
27,480.0,5
27,84.0,6
27,59.0,7
27,71.0,8
27,444.0,9
28,157.0,1
28,374.0,2
28,11.0,3
28,56.0,4
28,94.0,5
28,105.0,6
28,234.0,7
28,384.0,8
28,102.0,9
28,249.0,10
29,448.0,1
30,55.0,1
30,223.0,2
30,253.0,3
30,352.0,4
30,425.0,5
30,216.0,6
30,126.0,7
30,219.0,8
30,222.0,9
30,252.0,10
31,139.0,1
31,424.0,2
31,130.0,3
31,205.0,4
32,210.0,1
32,324.0,2
33,363.0,1
33,455.0,2
33,270.0,3
33,13.0,4
34,450.0,1
34,456.0,2
34,405.0,3
34,412.0,4
35,348.0,1
35,404.0,2
35,51.0,3
35,230.0,4
35,70.0,5
35,88.0,6
35,461.0,7
35,477.0,8
35,54.0,9
35,382.0,10
36,151.0,1
37,481.0,1
38,326.0,1
38,350.0,2
38,165.0,3
38,401.0,4
38,496.0,5
38,85.0,6
38,110.0,7
38,192.0,8
38,39.0,9
38,179.0,10
39,251.0,1
39,279.0,2
39,494.0,3
39,295.0,4
39,149.0,5
39,132.0,6
39,347.0,7
39,451.0,8
40,58.0,1
41,20.0,1
41,387.0,2
41,106.0,3
41,467.0,4
41,263.0,5
41,131.0,6
41,218.0,7
41,378.0,8
42,52.0,1
42,68.0,2
42,214.0,3
42,76.0,4
42,281.0,5
42,129.0,6
42,64.0,7
42,367.0,8
42,482.0,9
42,28.0,10
43,123.0,1
43,250.0,2
43,434.0,3
43,446.0,4
43,246.0,5
44,109.0,1
44,312.0,2
44,75.0,3
44,317.0,4
44,14.0,5
44,437.0,6
44,77.0,7
44,141.0,8
44,258.0,9
45,7.0,1
45,498.0,2
45,117.0,3
45,124.0,4
45,89.0,5
45,202.0,6
45,239.0,7
46,447.0,1
46,169.0,2
46,358.0,3
46,193.0,4
46,208.0,5
46,156.0,6
46,379.0,7
47,315.0,1
47,247.0,2
47,464.0,3
47,488.0,4
47,194.0,5
47,38.0,6
47,431.0,7
48,1.0,1
48,198.0,2
48,478.0,3
48,200.0,4
48,380.0,5
48,37.0,6
48,345.0,7
48,100.0,8
48,293.0,9
48,365.0,10
49,369.0,1
49,458.0,2
49,261.0,3
49,332.0,4
49,408.0,5
49,468.0,6
49,18.0,7
49,371.0,8
50,10.0,1
50,443.0,2
50,462.0,3
50,42.0,4
50,445.0,5
50,428.0,6
50,339.0,7
51,344.0,1
52,366.0,1
53,36.0,1
53,454.0,2
53,140.0,3
53,356.0,4
53,262.0,5
53,484.0,6
53,137.0,7
53,256.0,8
54,166.0,1
54,264.0,2
54,296.0,3
54,34.0,4
54,199.0,5
55,300.0,1
55,390.0,2
55,351.0,3
55,368.0,4
55,74.0,5
55,29.0,6
55,133.0,7
55,183.0,8
55,220.0,9
55,361.0,10
56,414.0,1
56,472.0,2
56,485.0,3
57,147.0,1
57,231.0,2
57,280.0,3
57,46.0,4
57,50.0,5
57,359.0,6
57,144.0,7
57,163.0,8
57,233.0,9
57,292.0,10
58,436.0,1
58,177.0,2
58,178.0,3
58,153.0,4
59,283.0,1
60,24.0,1
60,53.0,2
60,308.0,3
60,170.0,4
60,21.0,5
60,385.0,6
60,120.0,7
60,57.0,8
60,364.0,9
61,41.0,1
61,430.0,2
61,80.0,3
62,386.0,1
62,158.0,2
62,148.0,3
62,181.0,4
62,136.0,5
62,127.0,6
62,274.0,7
62,162.0,8
62,298.0,9
63,8.0,1
63,225.0,2
63,320.0,3
63,229.0,4
63,471.0,5
63,60.0,6
63,82.0,7
63,112.0,8
63,150.0,9
64,376.0,1
64,406.0,2
64,167.0,3
64,155.0,4
64,161.0,5
64,486.0,6
64,43.0,7
64,116.0,8
65,5.0,1
66,212.0,1
66,321.0,2
66,267.0,3
66,268.0,4
66,497.0,5
66,453.0,6
66,226.0,7
66,69.0,8
66,388.0,9
66,433.0,10
67,452.0,1
67,272.0,2
67,343.0,3
67,370.0,4
67,171.0,5
67,311.0,6
68,392.0,1
69,487.0,1
69,499.0,2
70,360.0,1
70,73.0,2
70,336.0,3
70,122.0,4
70,134.0,5
71,305.0,1
72,99.0,1
72,269.0,2
72,72.0,3
72,469.0,4
72,276.0,5
72,335.0,6
72,413.0,7
72,421.0,8
72,30.0,9
72,114.0,10
73,207.0,1
73,429.0,2
73,2.0,3
73,176.0,4
73,211.0,5
73,232.0,6
73,27.0,7
73,96.0,8
73,278.0,9
73,297.0,10
74,483.0,1
74,354.0,2
74,206.0,3
74,337.0,4
74,416.0,5
74,427.0,6
74,466.0,7
75,420.0,1
75,396.0,2
75,12.0,3
75,98.0,4
75,473.0,5
76,476.0,1
77,66.0,1
77,67.0,2
77,410.0,3
77,173.0,4
78,135.0,1
78,353.0,2
78,328.0,3
78,235.0,4
78,9.0,5
78,61.0,6
79,289.0,1
79,389.0,2
79,342.0,3
79,333.0,4
79,182.0,5
79,22.0,6
79,221.0,7
79,188.0,8
79,93.0,9
80,242.0,1
80,441.0,2
80,17.0,3
80,103.0,4
80,465.0,5
80,45.0,6
80,398.0,7
80,409.0,8
80,449.0,9
80,203.0,10
81,304.0,1
82,373.0,1
82,97.0,2
82,463.0,3
82,92.0,4
82,185.0,5
82,285.0,6
82,138.0,7
83,104.0,1
83,164.0,2
83,330.0,3
83,475.0,4
83,3.0,5
83,65.0,6
83,245.0,7
83,459.0,8
83,491.0,9
83,33.0,10
84,196.0,1
84,224.0,2
